
Gurobi 9.1.2 (linux64) logging started Wed Nov 24 10:33:10 2021

Changed value of parameter LogFile to lemke_square_v-(2, 0).log-s20-l10.log
   Prev:   Default: 
Changed value of parameter Threads to 32
   Prev: 0  Min: 0  Max: 1024  Default: 0
Changed value of parameter TimeLimit to 3600.0
   Prev: inf  Min: 0.0  Max: inf  Default: inf
Changed value of parameter MIPGap to 0.4
   Prev: 0.0001  Min: 0.0  Max: inf  Default: 0.0001
Warning: variable name "X[(7, 4),(7, 3)]" has a space
Warning: constraint name "flow-constr-t0-v(3, 0)" has a space
Warning: to let Gurobi read it back, use rlp format
Gurobi Optimizer version 9.1.2 build v9.1.2rc0 (linux64)
Thread count: 16 physical cores, 32 logical processors, using up to 32 threads
Optimize a model with 6033 rows, 5440 columns and 20720 nonzeros
Model fingerprint: 0x1eecac8b
Variable types: 0 continuous, 5440 integer (4800 binary)
Coefficient statistics:
  Matrix range     [1e+00, 1e+03]
  Objective range  [1e-01, 1e-01]
  Bounds range     [1e+00, 5e+02]
  RHS range        [1e+00, 1e+03]
Presolve removed 367 rows and 390 columns
Presolve time: 0.04s
Presolved: 5666 rows, 5050 columns, 18910 nonzeros
Variable types: 0 continuous, 5050 integer (4410 binary)

Root relaxation: objective 6.400000e+01, 128 iterations, 0.00 seconds

    Nodes    |    Current Node    |     Objective Bounds      |     Work
 Expl Unexpl |  Obj  Depth IntInf | Incumbent    BestBd   Gap | It/Node Time

     0     0   64.00000    0   46          -   64.00000      -     -    0s
     0     0   64.00000    0   93          -   64.00000      -     -    0s
     0     0   64.00000    0   93          -   64.00000      -     -    0s
     0     0   64.00000    0   48          -   64.00000      -     -    0s
     0     0   64.00000    0   48          -   64.00000      -     -    0s
     0     0   64.00000    0   60          -   64.00000      -     -    0s
H    0     0                    3232.7000000   64.00000  98.0%     -    0s
     0     0   64.00000    0   40 3232.70000   64.00000  98.0%     -    0s
H    0     0                     150.0000000   64.00000  57.3%     -    0s
     0     2   64.00000    0   38  150.00000   64.00000  57.3%     -    0s
H   31    64                     146.4000000   64.00000  56.3%  47.6    1s
H   32    64                     142.2000000   64.00000  55.0%  48.5    1s
H   33    64                     128.6000000   64.00000  50.2%  48.6    1s
H   37    64                     126.6000000   64.00000  49.4%  49.4    1s
H   40    64                     119.6000000   64.00000  46.5%  49.6    1s
H   95   126                     116.8000000   64.00000  45.2%  47.0    3s
H   96   126                     112.9000000   64.00000  43.3%  47.2    3s
H  115   126                     111.4000000   64.00000  42.5%  41.3    3s
  3510  5244  106.80000  103   96  111.40000   64.00000  42.5%  17.7    5s
H 7655  8122                     111.2000000   64.00000  42.4%  13.6    6s
H 7688  8122                     111.1000000   64.00000  42.4%  13.7    6s
H 7732  8101                     110.2000000   64.00000  41.9%  13.6    6s
H 7755  7933                     107.0000000   64.00000  40.2%  13.6    6s
H 7791  7883                     105.9000000   64.00000  39.6%  13.5    6s
H 8035  7856                     104.1000000   64.00000  38.5%  13.5    6s
H 8506  7835                     102.6000000   64.00000  37.6%  13.3    6s

Cutting planes:
  Gomory: 20
  Cover: 262
  Implied bound: 396
  Clique: 11
  MIR: 61
  StrongCG: 2
  Flow cover: 21
  Inf proof: 1
  Zero half: 3
  RLT: 16
  Relax-and-lift: 60

Explored 8876 nodes (117352 simplex iterations) in 6.41 seconds
Thread count was 32 (of 32 available processors)

Solution count 10: 102.6 104.1 105.9 ... 116.8

Optimal solution found (tolerance 4.00e-01)
Best objective 1.026000000000e+02, best bound 6.400000000000e+01, gap 37.6218%

Gurobi 9.1.2 (linux64) logging started Wed Nov 24 12:43:08 2021

Changed value of parameter LogFile to lemke_square_v-(2, 0).log-s20-l10.log
   Prev:   Default: 
Changed value of parameter Threads to 32
   Prev: 0  Min: 0  Max: 1024  Default: 0
Changed value of parameter TimeLimit to 3600.0
   Prev: inf  Min: 0.0  Max: inf  Default: inf
Changed value of parameter MIPGap to 0.3
   Prev: 0.0001  Min: 0.0  Max: inf  Default: 0.0001
Warning: variable name "X[(7, 4),(7, 3)]" has a space
Warning: constraint name "flow-constr-t0-v(3, 0)" has a space
Warning: to let Gurobi read it back, use rlp format
Gurobi Optimizer version 9.1.2 build v9.1.2rc0 (linux64)
Thread count: 16 physical cores, 32 logical processors, using up to 32 threads
Optimize a model with 6033 rows, 5440 columns and 20720 nonzeros
Model fingerprint: 0x1eecac8b
Variable types: 0 continuous, 5440 integer (4800 binary)
Coefficient statistics:
  Matrix range     [1e+00, 1e+03]
  Objective range  [1e-01, 1e-01]
  Bounds range     [1e+00, 5e+02]
  RHS range        [1e+00, 1e+03]
Presolve removed 367 rows and 390 columns
Presolve time: 0.03s
Presolved: 5666 rows, 5050 columns, 18910 nonzeros
Variable types: 0 continuous, 5050 integer (4410 binary)

Root relaxation: objective 6.400000e+01, 128 iterations, 0.01 seconds

    Nodes    |    Current Node    |     Objective Bounds      |     Work
 Expl Unexpl |  Obj  Depth IntInf | Incumbent    BestBd   Gap | It/Node Time

     0     0   64.00000    0   46          -   64.00000      -     -    0s
     0     0   64.00000    0   93          -   64.00000      -     -    0s
     0     0   64.00000    0   93          -   64.00000      -     -    0s
     0     0   64.00000    0   48          -   64.00000      -     -    0s
     0     0   64.00000    0   48          -   64.00000      -     -    0s
     0     0   64.00000    0   60          -   64.00000      -     -    0s
H    0     0                    3232.7000000   64.00000  98.0%     -    0s
     0     0   64.00000    0   40 3232.70000   64.00000  98.0%     -    0s
H    0     0                     150.0000000   64.00000  57.3%     -    0s
     0     2   64.00000    0   38  150.00000   64.00000  57.3%     -    0s
H   31    64                     146.4000000   64.00000  56.3%  47.6    2s
H   32    64                     142.2000000   64.00000  55.0%  48.5    2s
H   33    64                     128.6000000   64.00000  50.2%  48.6    2s
H   37    64                     126.6000000   64.00000  49.4%  49.4    2s
H   40    64                     119.6000000   64.00000  46.5%  49.6    2s
H   95   126                     116.8000000   64.00000  45.2%  47.0    3s
H   96   126                     112.9000000   64.00000  43.3%  47.2    3s
H  115   126                     111.4000000   64.00000  42.5%  41.3    3s
  1916  3297  103.50000   55   77  111.40000   64.00000  42.5%  22.4    5s
H 7655  8122                     111.2000000   64.00000  42.4%  13.6    6s
H 7688  8122                     111.1000000   64.00000  42.4%  13.7    6s
H 7732  8101                     110.2000000   64.00000  41.9%  13.6    6s
H 7755  7933                     107.0000000   64.00000  40.2%  13.6    6s
H 7791  7883                     105.9000000   64.00000  39.6%  13.5    6s
H 8035  7856                     104.1000000   64.00000  38.5%  13.5    6s
H 8506  7835                     102.6000000   64.00000  37.6%  13.3    6s
H 8876  7765                     101.8000000   64.00000  37.1%  12.9    6s
H 8879  7373                     101.6000000   64.00000  37.0%  12.9    7s
H 8885  7008                     101.5000000   64.00000  36.9%  12.9    8s
H 8889  6661                      99.6000000   64.00000  35.7%  12.9    8s
H 8889  6327                      99.4000000   64.00000  35.6%  12.9    8s
  8894  6330   67.00000   42   40   99.40000   64.00000  35.6%  12.9   10s
H 8925  6067                      95.0000000   64.00000  32.6%  14.0   11s
H 8926  5766                      92.2000000   64.00000  30.6%  14.0   11s
H 8929  5479                      89.5000000   64.00000  28.5%  14.0   11s

Cutting planes:
  Gomory: 4
  Cover: 142
  Implied bound: 171
  Projected implied bound: 15
  Clique: 34
  MIR: 42
  Flow cover: 44
  GUB cover: 2
  RLT: 13
  Relax-and-lift: 50

Explored 8957 nodes (127810 simplex iterations) in 11.68 seconds
Thread count was 32 (of 32 available processors)

Solution count 10: 89.5 92.2 95 ... 104.1

Optimal solution found (tolerance 3.00e-01)
Best objective 8.950000000000e+01, best bound 6.400000000000e+01, gap 28.4916%
